1 3 163 5
0 140
0 140
0 140
0 140
0 140
  0  13.54   7.07 0   0 0 0
  1 -20.61  -8.04 0   2 1 5 1 2 4 8 16
  2 -21.23  -8.15 0   2 1 5 1 2 4 8 16
  3 -21.63  -8.15 0  12 2 3 5 10 20
  4 -22.14  -8.32 0   3 1 5 1 2 4 8 16
  5 -37.43 -11.44 0  54 3 3 11 21 26
  6 -35.33 -12.91 0   3 1 5 1 2 4 8 16
  7 -34.48 -10.99 0   9 1 5 1 2 4 8 16
  8 -19.53 -15.12 0   4 1 5 1 2 4 8 16
  9 -17.21 -13.42 0   3 1 5 1 2 4 8 16
 10 -16.59 -16.76 0  41 3 3 11 21 26
 11 -17.27 -17.33 0   2 1 5 1 2 4 8 16
 12 -17.44 -17.78 0   2 1 5 1 2 4 8 16
 13 -17.84 -18.23 0   3 1 5 1 2 4 8 16
 14 -16.08 -19.59 0   9 1 5 1 2 4 8 16
 15 -16.08 -15.57 0   8 1 5 1 2 4 8 16
 16 -15.35 -20.84 0   9 1 5 1 2 4 8 16
 17 -17.84 -20.89 0   6 1 5 1 2 4 8 16
 18 -19.93 -24.91 0   2 1 5 1 2 4 8 16
 19 -24.01 -24.01 0   3 1 5 1 2 4 8 16
 20 -25.76 -22.31 0   6 1 5 1 2 4 8 16
 21 -25.82 -24.01 0   2 1 5 1 2 4 8 16
 22 -26.16 -28.37 0   4 1 5 1 2 4 8 16
 23 -26.16 -29.27 0   4 1 5 1 2 4 8 16
 24 -28.59 -31.71 0   8 1 5 1 2 4 8 16
 25 -31.26 -33.41 0  18 2 3 5 10 20
 26 -28.99 -31.20 0   8 1 5 1 2 4 8 16
 27 -22.25 -28.26 0   3 1 5 1 2 4 8 16
 28 -19.42 -25.03 0   3 1 5 1 2 4 8 16
 29 -16.82 -19.99 0   3 1 5 1 2 4 8 16
 30 -15.97 -25.08 0   2 1 5 1 2 4 8 16
 31 -10.53 -29.44 0   3 1 5 1 2 4 8 16
 32 -10.53 -25.03 0   3 1 5 1 2 4 8 16
 33 -11.55 -22.65 0   3 1 5 1 2 4 8 16
 34 -10.53 -22.20 0   2 1 5 1 2 4 8 16
 35 -12.46 -17.50 0   2 1 5 1 2 4 8 16
 36  -9.06 -10.87 0   5 1 5 1 2 4 8 16
 37  -9.97 -12.91 0   3 1 5 1 2 4 8 16
 38  -7.64 -12.63 0   3 1 5 1 2 4 8 16
 39  -5.55 -15.23 0   3 1 5 1 2 4 8 16
 40  -2.72  -9.63 0   6 1 5 1 2 4 8 16
 41  -2.77 -19.25 0   3 1 5 1 2 4 8 16
 42  -2.72 -20.84 0   3 1 5 1 2 4 8 16
 43  -6.57 -28.48 0  19 2 3 5 10 20
 44  -6.57 -34.94 0   4 1 5 1 2 4 8 16
 45   3.40 -36.13 0   3 1 5 1 2 4 8 16
 46   5.04 -28.43 0   3 1 5 1 2 4 8 16
 47   1.25 -26.16 0   9 1 5 1 2 4 8 16
 48   9.12 -24.46 0  22 3 3 11 21 26
 49   9.29 -23.78 0   3 1 5 1 2 4 8 16
 50   9.23 -23.22 0   3 1 5 1 2 4 8 16
 51   7.64 -23.73 0   3 1 5 1 2 4 8 16
 52   8.04 -22.31 0   4 1 5 1 2 4 8 16
 53   6.85 -22.48 0   2 1 5 1 2 4 8 16
 54   6.79 -22.48 0   2 1 5 1 2 4 8 16
 55   6.62 -21.74 0   2 1 5 1 2 4 8 16
 56   5.78 -21.74 0   3 1 5 1 2 4 8 16
 57   5.72 -20.84 0   5 1 5 1 2 4 8 16
 58   3.91 -20.67 0   6 1 5 1 2 4 8 16
 59   4.64 -20.05 0   8 1 5 1 2 4 8 16
 60   6.00 -20.61 0   3 1 5 1 2 4 8 16
 61   6.34 -20.61 0   3 1 5 1 2 4 8 16
 62   8.15 -20.61 0   3 1 5 1 2 4 8 16
 63   8.66 -15.57 0   3 1 5 1 2 4 8 16
 64   7.19 -20.72 0   6 1 5 1 2 4 8 16
 65   7.19 -20.78 0   3 1 5 1 2 4 8 16
 66   7.25 -21.29 0   6 1 5 1 2 4 8 16
 67   7.59 -21.18 0   5 1 5 1 2 4 8 16
 68   8.04 -21.40 0   2 1 5 1 2 4 8 16
 69   8.04 -21.35 0   2 1 5 1 2 4 8 16
 70   8.04 -21.46 0   7 1 5 1 2 4 8 16
 71   8.10 -21.46 0   3 1 5 1 2 4 8 16
 72  15.74 -22.03 0  30 3 3 11 21 26
 73  11.78 -20.89 0   6 1 5 1 2 4 8 16
 74  13.14 -22.08 0   3 1 5 1 2 4 8 16
 75  12.91 -22.88 0   3 1 5 1 2 4 8 16
 76  13.36 -25.54 0   2 1 5 1 2 4 8 16
 77  16.53 -24.46 0   3 1 5 1 2 4 8 16
 78  16.53 -24.97 0   2 1 5 1 2 4 8 16
 79  16.76 -25.93 0   6 1 5 1 2 4 8 16
 80  16.53 -43.88 0   9 1 5 1 2 4 8 16
 81  18.01 -21.40 0   4 1 5 1 2 4 8 16
 82   7.02 -19.59 0   3 1 5 1 2 4 8 16
 83   6.97 -19.08 0   3 1 5 1 2 4 8 16
 84   6.46 -19.59 0   3 1 5 1 2 4 8 16
 85   6.34 -19.53 0   3 1 5 1 2 4 8 16
 86   7.87 -17.33 0   3 1 5 1 2 4 8 16
 87   9.00 -16.36 0   3 1 5 1 2 4 8 16
 88   5.10 -16.93 0   9 1 5 1 2 4 8 16
 89   5.15 -15.97 0   2 1 5 1 2 4 8 16
 90   1.25 -12.34 0   2 1 5 1 2 4 8 16
 91   2.15 -10.87 0   5 1 5 1 2 4 8 16
 92   5.10 -10.99 0   2 1 5 1 2 4 8 16
 93   5.10 -11.15 0   2 1 5 1 2 4 8 16
 94   3.79  -8.49 0   3 1 5 1 2 4 8 16
 95   4.42  -9.00 0   3 1 5 1 2 4 8 16
 96   5.27 -10.08 0   3 1 5 1 2 4 8 16
 97   5.66 -10.42 0  12 2 3 5 10 20
 98   6.29 -10.02 0   2 1 5 1 2 4 8 16
 99   6.40  -9.40 0   8 1 5 1 2 4 8 16
100   7.02  -9.06 0   3 1 5 1 2 4 8 16
101  16.76 -13.02 0   9 1 5 1 2 4 8 16
102  16.76 -16.65 0   8 1 5 1 2 4 8 16
103  32.22   0.14 0  10 2 3 5 10 20
104  12.46  -1.13 0   3 1 5 1 2 4 8 16
105  -1.13  -8.66 0   3 1 5 1 2 4 8 16
106  -2.61 -12.29 0   3 1 5 1 2 4 8 16
107  -2.77 -10.99 0   3 1 5 1 2 4 8 16
108  -4.08 -10.87 0   3 1 5 1 2 4 8 16
109  -3.17  -8.95 0   3 1 5 1 2 4 8 16
110   5.15  -9.57 0   2 1 5 1 2 4 8 16
111  -6.74  -9.97 0   2 1 5 1 2 4 8 16
112 -10.47 -11.38 0   3 1 5 1 2 4 8 16
113 -10.42  -9.74 0   3 1 5 1 2 4 8 16
114 -15.23 -10.25 0  20 3 3 11 21 26
115 -13.25  -9.63 0   4 1 5 1 2 4 8 16
116 -13.25 -10.82 0   2 1 5 1 2 4 8 16
117  -9.57  -8.83 0   4 1 5 1 2 4 8 16
118  -8.04  -8.32 0   3 1 5 1 2 4 8 16
119  -9.00  -8.10 0   3 1 5 1 2 4 8 16
120 -10.25  -7.53 0   3 1 5 1 2 4 8 16
121 -10.19  -7.70 0   3 1 5 1 2 4 8 16
122 -10.31  -7.53 0   5 1 5 1 2 4 8 16
123  -9.80  -7.14 0   2 1 5 1 2 4 8 16
124  -9.46  -7.93 0   3 1 5 1 2 4 8 16
125  -8.83  -5.89 0   3 1 5 1 2 4 8 16
126  -8.55  -7.19 0   3 1 5 1 2 4 8 16
127  -5.04  -5.83 0   2 1 5 1 2 4 8 16
128  -2.61  -5.83 0   3 1 5 1 2 4 8 16
129  -4.30  -2.72 0   9 1 5 1 2 4 8 16
130  -2.72  -2.21 0   9 1 5 1 2 4 8 16
131  -1.70  -1.98 0   6 1 5 1 2 4 8 16
132  -2.09  -1.19 0  21 3 3 11 21 26
133   3.79   0.17 0   3 1 5 1 2 4 8 16
134   4.47   0.79 0   3 1 5 1 2 4 8 16
135   2.66   4.53 0   5 1 5 1 2 4 8 16
136   1.25   2.26 0   3 1 5 1 2 4 8 16
137 -18.97 -12.46 0 105 3 3 11 21 26
138 -15.12  -7.14 0  11 2 3 5 10 20
139 -14.78  -7.53 0   3 1 5 1 2 4 8 16
140 -14.84  -6.57 0   3 1 5 1 2 4 8 16
141 -14.16  -6.40 0   3 1 5 1 2 4 8 16
142 -14.16  -6.23 0   3 1 5 1 2 4 8 16
143 -12.51  -6.23 0   5 1 5 1 2 4 8 16
144 -12.46  -6.12 0   3 1 5 1 2 4 8 16
145 -11.67  -6.34 0   2 1 5 1 2 4 8 16
146 -16.42  -4.13 0   6 1 5 1 2 4 8 16
147 -12.17  -4.13 0   4 1 5 1 2 4 8 16
148 -11.32  -4.64 0   3 1 5 1 2 4 8 16
149 -10.36  -4.59 0   6 1 5 1 2 4 8 16
150  -8.61  -3.40 0  13 2 3 5 10 20
151  -8.55  -3.74 0   2 1 5 1 2 4 8 16
152  -8.10  -1.30 0   2 1 5 1 2 4 8 16
153  -8.10  -1.36 0  10 2 3 5 10 20
154  -6.46  -3.96 0   7 1 5 1 2 4 8 16
155  -5.89  -3.45 0   5 1 5 1 2 4 8 16
156  -4.98  -2.49 0   4 1 5 1 2 4 8 16
157  -6.62  -3.34 0   3 1 5 1 2 4 8 16
158  -6.51  -2.89 0   5 1 5 1 2 4 8 16
159  -6.51  -1.08 0   3 1 5 1 2 4 8 16
160  -6.51   1.08 0   3 1 5 1 2 4 8 16
161  -5.10   2.26 0   2 1 5 1 2 4 8 16
162  -5.15   3.45 0   2 1 5 1 2 4 8 16
163  -4.13   3.91 0   5 1 5 1 2 4 8 16
